c description: tiling of 
c generator: CNFgen (0.9.0)
c copyright: (C) 2012-2020 Massimo Lauria <massimo.lauria@uniroma1.it>
c url: https://massimolauria.net/cnfgen
c
p cnf 20 99
-1 -11 0
1 11 0
-1 -11 0
-1 -14 0
-11 -14 0
1 11 14 0
-2 -19 0
2 19 0
-3 -4 0
-3 -5 0
-3 -10 0
-3 -11 0
-3 -14 0
-4 -5 0
-4 -10 0
-4 -11 0
-4 -14 0
-5 -10 0
-5 -11 0
-5 -14 0
-10 -11 0
-10 -14 0
-11 -14 0
3 4 5 10 11 14 0
-3 -7 0
-3 -9 0
-3 -17 0
-7 -9 0
-7 -17 0
-9 -17 0
3 7 9 17 0
-3 -7 0
-3 -14 0
-7 -14 0
3 7 14 0
-4 -5 0
-4 -15 0
-5 -15 0
4 5 15 0
-4 -7 0
-4 -9 0
-7 -9 0
4 7 9 0
-4 -9 0
-4 -14 0
-4 -15 0
-9 -14 0
-9 -15 0
-14 -15 0
4 9 14 15 0
-5 -6 0
-5 -8 0
-5 -12 0
-5 -13 0
-5 -14 0
-5 -15 0
-6 -8 0
-6 -12 0
-6 -13 0
-6 -14 0
-6 -15 0
-8 -12 0
-8 -13 0
-8 -14 0
-8 -15 0
-12 -13 0
-12 -14 0
-12 -15 0
-13 -14 0
-13 -15 0
-14 -15 0
5 6 8 12 13 14 15 0
-5 -6 0
-5 -20 0
-6 -20 0
5 6 20 0
-5 -8 0
-5 -10 0
-5 -17 0
-8 -10 0
-8 -17 0
-10 -17 0
5 8 10 17 0
-5 -12 0
5 12 0
-5 -13 0
5 13 0
-6 -20 0
6 20 0
-7 -8 0
-7 -17 0
-8 -17 0
7 8 17 0
-8 -10 0
-8 -14 0
-10 -14 0
8 10 14 0
16 0
18 0